(set-info :smt-lib-version 2.6)
(set-logic QF_S)
(set-info :source |
Generated by: Shaoke Cui
Generated on: 2025-04-10
Application: Using String Solvers to solve string matching problems
Target solver: cvc5, OSTRICH, Z3, Z3alpha, Z3-noodler
Benchmarks for substring matching problem, which needs to determine whether the pattern string exists in the text string.
|)
(set-info :license "https://creativecommons.org/licenses/by/4.0/")
(set-info :category "crafted")
(set-info :status sat)
(declare-fun a1() String)
(declare-fun a2() String)
(declare-fun a3() String)
(declare-fun a4() String)
(declare-fun a5() String)
(declare-fun a6() String)
(declare-fun a7() String)
(declare-fun a8() String)
(declare-fun a9() String)
(declare-fun a10() String)
(declare-fun a11() String)
(declare-fun a12() String)
(declare-fun a13() String)
(declare-fun a14() String)
(declare-fun a15() String)
(declare-fun a16() String)
(declare-fun a17() String)
(declare-fun a18() String)
(assert (= a1 "888888888888888888888888888888888888888888888888888888888888888888888888888888888888888888888888888888888888888888888888888888888888888888888888888888888888888888888888888888888888888888888"))
(assert (= a2 "888888888888888888888888888888888888888888888888888888888888888888888888888888888888888888888888888888888888888888888888888888888888888888888888888888888888888888888888888888888888888888888"))
(assert (= a3 "888888888888888888888888888888888888888888888888888888888888888888888888888888888888888888888888888888888888888888888888888888888888888888888888888888888888888888888888888888888888888888888"))
(assert (= a4 "888888888888888888888888888888888888888888888888888888888888888888888888888888888888888888888888888888888888888888888888888888888888888888888888888888888888888888888888888888888888888888888"))
(assert (= a5 "888888888888888888888888888888888888888888888888888888888888888888888888888888888888888888888888888888888888888888888888888888888888888888888888888888888888888888888888888888888888888888888"))
(assert (= a6 "888888888888888888888888888888888888888888888888888888888888888888888888888888888888888888888888888888888888888888888888888888888888888888888888888888888888888888888888888888888888888888888"))
(assert (= a7 "888888888888888888888888888888888888888888888888888888888888888888888888888888888888888888888888888888888888888888888888888888888888888888888888888888888888888888888888888888888888888888888"))
(assert (= a8 "888888888888888888888888888888888888888888888888888888888888888888888888888888888888888888888888888888888888888888888888888888888888888888888888888888888888888888888888888888888888888888888"))
(assert (= a9 "888888888888888888888888888888888888888888888888888888888888888888888888888888888888888888888888888888888888888888888888888888888888888888888888888888888888888888888888888888888888888888888"))
(assert (= a10 "888888888888888888888888888888888888888888888888888888888888888888888888888888888888888888888888888888888888888888888888888888888888888888888888888888888888888888888888888888888888888888"))
(assert (= a11 "888888888888888888888888888888888888888888888888888888888888888888888888888888888888888888888888888888888888888888888888888888888888888888888888888888888888888888888888888888888888888888"))
(assert (= a12 "888888888888888888888888888888888888888888888888888888888888888888888888888888888888888888888888888888888888888888888888888888888888888888888888888888888888888888888888888888888888888888"))
(assert (= a13 "888888888888888888888888888888888888888888888888888888888888888888888888888888888888888888888888888888888888888888888888888888888888888888888888888888888888888888888888888888888888888888"))
(assert (= a14 "888888888888888888888888888888888888888888888888888888888888888888888888888888888888888888888888888888888888888888888888888888888888888888888888888888888888888888888888888888888888888888"))
(assert (= a15 "888888888888888888888888888888888888888888888888888888888888888888888888888888888888888888888888888888888888888888888888888888888888888888888888888888888888888888888888888888888888888888"))
(assert (= a16 "888888888888888888888888888888888888888888888888888888888888888888888888888888888888888888888888888888888888888888888888888888888888888888888888888888888888888888888888888888888888888888"))
(assert (= a17 "888888888888888888888888888888888888888888888888888888888888888888888888888888888888888888888888888888888888888888888888888888888888888888888888888888888888888888888888888888888888888888"))
(assert (= a18 "888888888888888888888888888888888888888888888888888888888888888888888888888888888888888888888888888888888888888888888888888888888888888888888888888888888888888888888888888888888888888888"))
(assert (str.contains (str.++ a6 a9 a9 a4 a4 a1 a9 a5 a3 a5 a9 a1 a1 a5 a6 a8 a9 a4 a8 a2 a7 a1 a7 a8 a8 a1 a7 a3 a5 a8 a8 a7 a8 a1 a6 a5 a7 a5 a7 a9 a5 a1 a4 a1 a3 a1 a1 a8 a4 a1 a5 a4 a5 a5 a7 a8 a1 a6 a1 a5 a5 a2 a7 a2 a1 a1 a7 a5 a8 a3 a6 a8 a5 a4 a9 a5 a7 a8 a3 a7 a8 a1 a6 a3 a7 a2 a5 a4 a7 a8 a7 a6 a4 a8 a7 a4 a5 a4 a5 a4 a2 a3 a1 a3 a9 a6 a3 a4 a7 a4 a5 a3 a9 a8 a7 a6 a1 a7 a5 a9 a7 a3 a1 a3 a3 a4 a9 a7 a9 a8 a5 a7 a7 a6 a7 a4 a9 a1 a2 a1 a3 a4 a1 a3 a8 a1 a7 a7 a7 a3 a6 a5 a6 a7 a5 a2 a7 a1 a5 a8 a3 a8 a2 a3 a2 a4 a3 a1 a7 a7 a5 a7 a6 a1 a8 a5 a7 a8 a5 a8 a9 a7 a2 a6 a9 a6 a8 a9 a4 a3 a7 a4 a3 a9 a3 a3 a6 a6 a1 a3 a4 a7 a9 a2 a8 a6 a5 a6 a2 a6 a6 a4 a2 a3 a8 a8 a9 a2 a5 a4 a7 a2 a6 a5 a6 a4 a7 a8 a6 a4 a6 a6 a1 a8 a9 a1 a1 a3 a7 a2 a7 a7 a6 a3 a2 a7 a1 a4 a5 a6 a8 a5 a2 a3 a3 a2 a2 a3 a6 a2 a8 a3 a1 a6 a5 a4 a5 a4 a7 a8 a5 a5 a6 a9 a6 a1 a3 a2 a3 a8 a7 a3 a9 a8 a5 a5 a2 a4 a2 a9 a4 a2 a8 a8 a5 a9 a3 a2 a6 a5 a3 a2 a6 a3 a3 a1 a8 a3 a1 a8 a5 a9 a5 a9 a7 a9 a6 a7 a5 a3 a7 a6 a5 a3 a2 a3 a4 a4 a8 a1 a5 a5 a1 a3 a1 a1 a9 a2 a4 a6 a3 a8 a4 a6 a5 a4 a2 a6 a2 a9 a8 a1 a9 a3 a2 a3 a2 a1 a5 a6 a2 a5 a1 a2 a8 a1 a3 a3 a5 a3 a5 a2 a6 a7 a5 a8 a4 a8 a1 a8 a9 a2 a6 a4 a6 a1 a9 a2 a5 a1 a5 a2 a7 a3 a4 a9 a7 a3 a8 a8 a3 a8 a9 a2 a2 a9 a1 a6 a3 a8 a5 a5 a6 a1 a1 a7 a3 a2 a9 a4 a7 a8 a3 a6 a9 a9 a1 a8 a6 a5 a6 a7 a3 a3 a8 a6 a9 a6 a4 a3 a2 a9 a1 a8 a4 a6 a1 a3 a6 a8 a8 a4 a6 a3 a7 a5 a1 a1 a7 a7 a7 a6 a8 a5 a8 a7 a9 a6 a6 a3 a7 a4 a8 a8 a4 a7 a4 a5 a3 a7 a6 a9 a5 a9 a8 a2 a7 a5 a5 a8 a6 a2 a3 a2 a9 a7 a7 a4 a4 a5 a3 a8 a9 a4 a3 a2 a3 a9 a1 a7 a6 a6 a4 a2 a2 a8 a6 a1 a8 a3 a5 a7 a7 a1 a9 a2 a3 a8 a2 a9 a5 a4 a6 a8 a6 a4 a7 a5 a6 a1 a2 a8 a8 a7 a6 a2 a2 a7 a8 a5 a8 a2 a7 a5 a7 a9 a5 a6 a9 a2 a9 a9 a6 a9 a7 a1 a2 a3 a7 a5 a7 a2 a3 a7 a9 a4 a4 a5 a5 a7 a9 a9 a4 a3 a5 a2 a7 a4 a1 a6 a1 a3 a7 a5 a7 a3 a9 a8 a6 a8 a7 a3 a4 a1 a1 a9 a4 a4 a6 a5 a2 a9 a7 a5 a8 a5 a4 a4 a1 a3 a6 a1 a8 a5 a7 a1 a5 a2 a2 a2 a2 a7 a2 a8 a9 a7 a7 a8 a9 a1 a4 a4 a3 a6 a6 a4 a1 a1 a2 a7 a9 a1 a6 a5 a6 a8 a6 a1 a7 a6 a4 a4 a8 a9 a9 a9 a9 a8 a8 a5 a6 a8 a6 a1 a7 a9 a7 a1 a8 a7 a9 a6 a8 a7 a4 a5 a5 a6 a1 a4 a4 a5 a3 a2 a9 a7 a6 a9 a6 a4 a1 a7 a9 a8 a1 a7 a3 a4 a9 a2 a3 a3 a1 a4 a4 a4 a6 a9 a8 a8 a5 a3 a6 a5 a4 a1 a2 a5 a3 a3 a3 a1 a6 a5 a1 a6 a2 a3 a8 a6 a9 a3 a8 a7 a7 a3 a6 a8 a4 a8 a8 a2 a6 a5 a5 a7 a5 a8 a8 a1 a2 a2 a4 a7 a7 a2 a9 a3 a2 a1 a9 a2 a6 a4 a1 a9 a9 a5 a3 a6 a7 a1 a1 a7 a5 a9 a1 a4 a2 a8 a5 a3 a7 a9 a1 a7 a8 a4 a3 a4 a4 a3 a3 a2 a5 a9 a2 a6 a5 a8 a1 a8 a2 a5 a3 a1 a9 a6 a4 a9 a4 a7 a7 a5 a6 a4 a1 a9 a7 a8 a1 a9 a6 a9 a9 a5 a6 a3 a3 a1 a4 a9 a2 a9 a4 a9 a2 a2 a7 a5 a5 a8 a9 a4 a2 a5 a4 a6 a5 a8 a5 a8 a8 a8 a3 a3 a7 a1 a5 a8 a6 a9 a2 a8 a5 a8 a2 a7 a8 a8 a7 a2 a3 a7 a7 a6 a1 a6 a3 a5 a5 a4 a8 a9 a2 a2 a9 a9 a1 a1 a1 a1 a5 a3 a5 a7 a9 a6 a7 a7 a7 a9 a5 a7 a8 a6 a7 a5 a3 a8 a3 a3 a7 a1 a8 a3 a7 a8 a4 a9 a4 a9 a4 a4 a7 a3 a3 a3 a9 a4 a8 a4 a6 a9 a6 a3 a7 a9 a2 a1 a7 a3 a7 a2 a9 a3 a4 a7 a9 a9 a6 a4 a8 a6 a4 a9 a5 a8 a4 a9 a6 a3 a7 a5 a2 a6 a2 a5 a7 a2 a9 a4 a3 a9 a9 a6 a7 a4 a8 a3 a2 a3 a7 a9 a8 a9 a6 a9 a9 a5 a2 a5 a1 a3 a2 a4 a6 a7 a4 a4 a2 a6 a2 a7 a4 a1 a7 a3 a4 a2 a4 a3 a8 a7 a8 a9 a6 a2 a1 a9 a3 a1 a2 a6 a6 a2 a4 a5 a1 a6 a1 a3 a6 a9 a3 a9 a1 a9 a2 a4 a4 a7 a7 a7 a9 a5 a9 a8 a8 a1 a3 a9 a7 a2 a8 a9 a3 a5 a9 a5 a5 a8 a3 a8 a5 a3 a6 a9 a4 a7 a9 a3 a8 a8 a5 a3 a1 a8 a4 a2 a7 a8 a7 a4 a7 a7 a3 a4 a3 a6 a3 a5 a4 a4 a6 a2 a8 a2 a8 a3 a7 a9 a1 a1 a2 a4 a3 a3 a5 a8 a6 a3 a7 a5 a8 a3 a4 a3 a7 a1 a6 a7 a9 a7 a2 a5 a2 a4 a5 a2 a6 a2 a3 a6 a3 a4 a5 a1 a2 a2 a6 a8 a1 a3 a2 a3 a2 a2 a3 a2 a9 a1 a1 a5 a7 a1 a2 a2 a3 a8 a7 a4 a3 a8 a2 a9 a2 a3 a1 a7 a7 a6 a7 a6 a9 a3 a1 a3 a7 a8 a2 a9 a2 a6 a6 a1 a1 a4 a1 a2 a8 a3 a2 a4 a1 a9 a6 a3 a6 a1 a4 a9 a5 a2 a1 a6 a8 a7 a2 a2 a7 a7 a4 a5 a2 a5 a5 a1 a6 a8 a9 a1 a2 a5 a5 a6 a1 a5 a9 a1 a7 a2 a6 a1 a7 a1 a8 a7 a5 a2 a9 a3 a4 a5 a2 a2 a3 a7 a1 a5 a7 a5 a6 a7 a8 a6 a7 a1 a3 a4 a6 a2 a1 a9 a4 a8 a8 a2 a6 a5 a8 a8 a2 a8 a2 a1 a3 a7 a5 a8 a1 a1 a7 a5 a5 a6 a5 a7 a6 a3 a1 a3 a8 a9 a2 a5 a9 a5 a9 a9 a3 a3 a4 a6 a9 a7 a5 a7 a6 a9 a6 a8 a6 a6 a4 a2 a6 a4 a1 a4 a8 a1 a4 a6 a3 a6 a7 a9 a8 a9 a6 a9 a8 a1 a3 a8 a6 a5 a1 a1 a1 a9 a1 a1 a2 a1 a1 a8 a1 a6 a9 a1 a9 a7 a7 a4 a8 a9 a3 a8 a9 a6 a3 a1 a1 a3 a8 a5 a3 a3 a8 a4 a3 a8 a6 a7 a5 a8 a8 a8 a5 a5 a1 a6 a5 a6 a8 a1 a7 a6 a5 a2 a6 a9 a6 a6 a8 a3 a1 a3 a3 a7 a1 a6 a4 a2 a8 a9 a4 a6 a4 a2 a7 a2 a2 a4 a7 a3 a9 a5 a9 a2 a1 a2 a5 a4 a8 a3 a7 a2 a3 a8 a3 a7 a1 a9 a7 a6 a6 a9 a6 a8 a5 a6 a2 a5 a3 a8 a2 a8 a5 a6 a2 a7 a6 a3 a6 a6 a5 a2 a3 a3 a8 a3 a5 a9 a7 a3 a8 a5 a8 a4 a2 a6 a3 a8 a7 a2 a2 a6 a4 a5 a1 a6 a2 a8 a7 a2 a1 a9 a5 a6 a4 a1 a2 a7 a3 a6 a7 a5 a1 a1 a1 a1 a5 a1 a4 a7 a9 a8 a4 a2 a5 a3 a9 a6 a2 a3 a9 a6 a9 a5 a7 a8 a5 a7 a8 a7 a9 a6 a3 a7 a7 a9 a8 a8 a1 a6 a3 a5 a6 a4 a2 a5 a8 a8 a6 a2 a5 a4 a6 a1 a6 a8 a1 a4 a3 a6 a2 a8 a8 a3 a2 a4 a5 a9 a8 a2 a7 a9 a3 a4 a5 a1 a2 a3 a3 a1 a7 a9 a5 a4 a3 a9 a2 a5 a9 a4 a3 a2 a7 a8 a6 a5 a3 a2 a1 a2 a6 a3 a4 a2 a1 a6 a1 a2 a4 a3 a2 a3 a3 a7 a5 a4 a7 a3 a8 a5 a5 a6 a8 a5 a6 a5 a3 a9 a9 a8 a3 a8 a1 a2 a5 a4 a3 a3 a2 a5 a4 a9 a8 a7 a8 a6 a5 a7 a8 a2 a9 a6 a5 a1 a9 a6 a3 a6 a2 a4 a2 a9 a3 a8 a9  "1" a13 a18 a15 a11 a16 a14 a16 a17 a14 a14 a17 a11 a11 a12 a14 a18 a14 a13 a13 a14 a18 a11 a16 a17 a10 a15 a12 a12 a14 a13 a17 a15 a11 a14 a15 a10 a13 a14 a17 a17 a16 a14 a17 a15 a12 a15 a10 a16 a14 a14 a12 a10 a13 a18 a11 a18 a18 a13 a18 a16 a13 a12 a15 a17 a14 a14 a18 a14 a13 a10 a11 a17 a10 a11 a10 a12 a14 a15 a11 a13 a10 a11 a18 a18 a17 a14 a17 a13 a11 a18 a18 a14 a11 a11 a15 a14 a12 a12 a16 a15 a10 a12 a14 a12 a14 a18 a15 a14 a12 a13 a18 a10 a17 a16 a18 a16 a13 a13 a10 a17 a10 a13 a15 a17 a15 a10 a15 a17 a11 a18 a17 a13 a11 a12 a15 a14 a10 a17 a15 a18 a13 a16 a17 a13 a10 a13 a17 a13 a14 a16 a12 a12 a14 a17 a18 a12 a17 a15 a15 a11 a18 a12 a17 a17 a18 a12 a14 a13 a17 a16 a15 a10 a17 a13 a14 a17 a12 a18 a15 a17 a16 a13 a15 a13 a15 a14 a12 a10 a16 a16 a10 a12 a18 a12 a18 a16 a10 a14 a17 a14 a15 a12 a18 a12 a18 a10 a16 a17 ) (str.++ a14 a15 a12 a14 a16 a15 a18 a17 a10 a16 a15 a14 a10 a10 a10 a14 a12 a12 a18 a14 a10 a17 a18 a13 a11 a12 a11 a12 a12 a10 a12 a16 a14 a11 a14 a18 a17 a11 a16 a18 a17 a10 a10 a14 a14 a10 a14 a18 a12 a11 a15 a15 a18 a12 a12 a18 a12 a16 a16 a18 a14 a13 a17 a10 a14 a18 a14 a18 a16 a12 a18 a13 a13 a14 a15 a16 a13 a12 a15 a17 a18 a12 a18 a17 a18 a16 a14 a11 a12 a18 a17 a16 a12 a18 a13 a12 a14 a10 a15 a13 a12 a13 a14 a14 a18 a14 a11 a11 a18 a11 a12 a12 a11 a10 a14 a11 a13 a16 a17 a17 a14 a12 a11 a16 a13 a10 a18 a17 a15 a12 a17 a11 a17 a18 a13 a15 a10 a11 a13 a14 a11 a14 a12 a11 a14 a10 a11 a13 a16 a12 a17 a18 a15 a13 a10 a18 a12 a17 a11 a17 a18 a11 a12 a12 a17 a14 a10 a15 a18 a13 a18 a11 a14 a18 a15 a15 a15 a11 a12 a14 a11 a14 a11 a13 a10 a14 a10 a15 a14 a15 a13 a18 a10 a12 a13 a12 a18 a10 a10 a18 a17 a14 a16 a18 a13  "1")))
(check-sat)
(exit)
